4163.33 0
0 137 80 92 79 78 83 82 81 90 0
0 20 28 32 23 29 37 135 69 71 65 0
0 144 139 138 146 97 0
0 27 36 58 51 112 103 7 11 9 17 5 2 14 0
0 61 55 121 132 64 0
0 107 102 110 1 13 12 109 57 53 59 52 0
0 63 56 54 62 136 129 130 133 128 134 60 0
0 111 101 45 50 40 38 43 44 72 131 0
0 34 25 118 73 67 70 68 74 66 99 108 104 145 149 0
0 33 19 30 24 0
0 18 21 22 35 26 31 115 127 125 0
0 94 96 95 93 75 0
0 142 147 148 143 6 150 15 42 48 49 47 39 0
0 106 100 98 105 126 116 122 117 114 113 124 119 120 123 0
0 46 41 8 4 10 3 16 141 140 89 84 91 86 88 87 85 77 76 0